NAME: lin20
TYPE: TSP
COMMENT: 20-city problem (Lin/Kernighan)
DIMENSION: 20
EDGE_WEIGHT_TYPE: EUC_2D
NODE_COORD_SECTION
1 63 71
2 94 71
3 142 370
4 173 1276
5 205 1213
6 213 69
7 244 69
8 276 630
9 283 732
10 362 69
11 394 69
12 449 370
13 480 1276
14 512 1213
15 528 157
16 583 630
17 591 732
18 638 654
19 638 496
20 638 314
EOF
